c colouring generated by benchmark framework
p edge 197 3925
v 1 18
v 2 34
v 3 48
v 4 6
v 5 25
v 6 36
v 7 20
v 8 35
v 9 33
v 10 2
v 11 9
v 12 0
v 13 1
v 14 14
v 15 32
v 16 5
v 17 46
v 18 26
v 19 41
v 20 24
v 21 14
v 22 12
v 23 10
v 24 29
v 25 35
v 26 5
v 27 18
v 28 33
v 29 9
v 30 34
v 31 48
v 32 44
v 33 47
v 34 7
v 35 40
v 36 22
v 37 19
v 38 31
v 39 23
v 40 42
v 41 28
v 42 20
v 43 36
v 44 11
v 45 37
v 46 6
v 47 30
v 48 44
v 49 38
v 50 19
v 51 45
v 52 37
v 53 23
v 54 11
v 55 4
v 56 4
v 57 13
v 58 1
v 59 16
v 60 21
v 61 5
v 62 45
v 63 17
v 64 27
v 65 10
v 66 4
v 67 17
v 68 13
v 69 23
v 70 31
v 71 40
v 72 29
v 73 19
v 74 3
v 75 12
v 76 21
v 77 0
v 78 5
v 79 38
v 80 39
v 81 33
v 82 24
v 83 43
v 84 47
v 85 0
v 86 33
v 87 25
v 88 30
v 89 39
v 90 7
v 91 39
v 92 10
v 93 8
v 94 29
v 95 2
v 96 15
v 97 3
v 98 9
v 99 1
v 100 13
v 101 24
v 102 47
v 103 30
v 104 31
v 105 28
v 106 24
v 107 7
v 108 3
v 109 47
v 110 33
v 111 8
v 112 15
v 113 22
v 114 38
v 115 45
v 116 36
v 117 32
v 118 3
v 119 13
v 120 2
v 121 15
v 122 25
v 123 15
v 124 26
v 125 27
v 126 42
v 127 16
v 128 28
v 129 27
v 130 41
v 131 13
v 132 13
v 133 44
v 134 17
v 135 47
v 136 31
v 137 22
v 138 24
v 139 7
v 140 1
v 141 2
v 142 40
v 143 41
v 144 19
v 145 42
v 146 22
v 147 13
v 148 22
v 149 24
v 150 31
v 151 13
v 152 22
v 153 21
v 154 47
v 155 33
v 156 0
v 157 19
v 158 9
v 159 33
v 160 41
v 161 27
v 162 16
v 163 13
v 164 13
v 165 47
v 166 29
v 167 25
v 168 48
v 169 40
v 170 44
v 171 25
v 172 20
v 173 7
v 174 47
v 175 46
v 176 16
v 177 22
v 178 7
v 179 15
v 180 2
v 181 19
v 182 26
v 183 47
v 184 19
v 185 41
v 186 12
v 187 30
v 188 31
v 189 7
v 190 44
v 191 10
v 192 43
v 193 38
v 194 31
v 195 38
v 196 12
v 197 43
